
Gurobi 9.1.2 (win64) logging started Mon Dec  6 14:35:32 2021

Gurobi Optimizer version 9.1.2 build v9.1.2rc0 (win64)
Thread count: 8 physical cores, 8 logical processors, using up to 8 threads
Optimize a model with 1 rows, 137 columns and 136 nonzeros
Model fingerprint: 0x6944c9d4
Variable types: 1 continuous, 136 integer (136 binary)
Coefficient statistics:
  Matrix range     [1e+00, 1e+01]
  Objective range  [1e+00, 1e+00]
  Bounds range     [5e+01, 5e+01]
  RHS range        [1e+01, 1e+01]
Presolve time: 0.00s
Presolved: 1 rows, 137 columns, 136 nonzeros
Variable types: 1 continuous, 136 integer (136 binary)

Root simplex log...

Iteration    Objective       Primal Inf.    Dual Inf.      Time
       0   -4.9405582e+01   1.533845e-01   0.000000e+00     16s
       6   -4.3245975e+01   0.000000e+00   0.000000e+00     16s

Root relaxation: objective -4.324598e+01, 6 iterations, 0.00 seconds

    Nodes    |    Current Node    |     Objective Bounds      |     Work
 Expl Unexpl |  Obj  Depth IntInf | Incumbent    BestBd   Gap | It/Node Time

     0     0  -43.24598    0    1          -  -43.24598      -     -   15s
H    0     0                       0.9198755  -43.24598  4801%     -   16s
H    0     0                       0.8995568  -43.24598  4907%     -   17s
     0     0  -23.53853    0    5    0.89956  -23.53853  2717%     -   17s
H    0     0                       0.8875412  -23.53853  2752%     -   17s
     0     0  -21.08459    0    7    0.88754  -21.08459  2476%     -   17s
     0     0  -20.51406    0    6    0.88754  -20.51406  2411%     -   17s
     0     0  -20.49410    0    6    0.88754  -20.49410  2409%     -   17s
     0     0  -19.32036    0    9    0.88754  -19.32036  2277%     -   17s
     0     0  -18.98623    0    9    0.88754  -18.98623  2239%     -   19s
     0     0  -17.33469    0    9    0.88754  -17.33469  2053%     -   19s
     0     0  -16.60216    0    9    0.88754  -16.60216  1971%     -   19s
     0     0  -16.44205    0    9    0.88754  -16.44205  1953%     -   19s
     0     0  -16.44205    0    5    0.88754  -16.44205  1953%     -   19s
     0     0  -16.44205    0    5    0.88754  -16.44205  1953%     -   20s
     0     0  -16.44205    0   11    0.88754  -16.44205  1953%     -   20s
     0     0  -16.11332    0   11    0.88754  -16.11332  1916%     -   21s
     0     0  -15.96628    0   10    0.88754  -15.96628  1899%     -   21s
     0     0  -15.96426    0   10    0.88754  -15.96426  1899%     -   21s
     0     0  -15.08072    0   11    0.88754  -15.08072  1799%     -   21s
     0     0  -15.07103    0   10    0.88754  -15.07103  1798%     -   21s
     0     0  -14.81716    0   11    0.88754  -14.81716  1769%     -   21s
     0     0  -14.81049    0   11    0.88754  -14.81049  1769%     -   21s
     0     0  -14.80773    0   11    0.88754  -14.80773  1768%     -   21s
     0     0  -14.39581    0   12    0.88754  -14.39581  1722%     -   21s
     0     0  -14.36852    0   12    0.88754  -14.36852  1719%     -   21s
     0     0  -14.36437    0   12    0.88754  -14.36437  1718%     -   21s
     0     0  -14.34363    0   11    0.88754  -14.34363  1716%     -   21s
     0     0  -14.32299    0   11    0.88754  -14.32299  1714%     -   21s
     0     0  -14.32299    0   11    0.88754  -14.32299  1714%     -   21s
     0     2  -14.32299    0   11    0.88754  -14.32299  1714%     -   21s
   314    57   -1.88960    9    2    0.88754   -3.52129   497%   3.6   28s

Cutting planes:
  MIR: 12
  Lazy constraints: 116

Explored 572 nodes (1940 simplex iterations) in 33.58 seconds
Thread count was 8 (of 8 available processors)

Solution count 3: 0.887541 0.899557 0.919875 

Optimal solution found (tolerance 1.00e-04)
Best objective 8.875411798511e-01, best bound 8.875411798511e-01, gap 0.0000%

User-callback calls 1534, time in user-callback 36.88 sec
